139
0 115 12 22 26 108 82 86 71 50 
75 66 1 24 92 47 41 35 51 84 
44 87 74 39 130 18 69 43 27 68 
72 67 101 10 31 19 17 76 107 126 
136 80 94 95 48 131 104 14 6 36 
138 73 59 13 64 3 137 38 93 116 
61 2 4 29 132 121 89 60 37 7 
23 110 97 33 5 112 135 78 83 117 
28 119 125 34 57 114 8 100 124 70 
128 58 103 20 56 15 52 134 81 88 
63 111 105 133 85 25 9 11 30 109 
96 99 129 122 91 65 21 32 98 102 
123 40 120 46 106 45 127 42 16 90 
49 54 79 55 113 53 62 77 118 
